20
0 1 0.26 0.26
0 2 0.7 0.15
0 3 0.72 0.2
0 4 0.36 0.22
0 5 0.52 0.11
0 6 0.28 0.28
0 7 0.23 0.23
0 8 0.1 0.1
0 9 0.5 0.04
0 10 0.26 0.26
0 11 0.58 0.12
0 12 0.72 0.12
0 13 0.26 0.26
0 14 0.48 0.29
0 15 0.21 0.21
0 16 0.26 0.26
0 17 0.49 0.21
0 18 0.62 0.22
0 19 0.48 0.24
1 2 0.19 0.19
1 3 0.3 0.3
1 4 0.31 0.31
1 5 0.15 0.15
1 6 0.56 0.1
1 7 0.11 0.11
1 8 0.34 0.29
1 9 0.61 0.22
1 10 0.42 0.3
1 11 0.26 0.26
1 12 0.26 0.26
1 13 0.62 0.08
1 14 0.23 0.23
1 15 0.75 0.29
1 16 0.7 0.39
1 17 0.55 0.32
1 18 0.27 0.27
1 19 0.28 0.28
2 3 0.11 0.11
2 4 0.7 0.12
2 5 0.04 0.04
2 6 0.26 0.26
2 7 0.2 0.2
2 8 0.8 0.25
2 9 0.52 0.11
2 10 0.19 0.19
2 11 0.52 0.19
2 12 0.74 0.19
2 13 0.8 0.23
2 14 0.75 0.26
2 15 0.54 0.24
2 16 0.27 0.27
2 17 0.98 0.24
2 18 0.29 0.29
2 19 0.17 0.17
3 4 0.23 0.23
3 5 0.68 0.15
3 6 0.34 0.34
3 7 0.31 0.31
3 8 0.64 0.29
3 9 0.16 0.16
3 10 0.89 0.3
3 11 0.24 0.24
3 12 0.24 0.24
3 13 0.64 0.34
3 14 0.73 0.37
3 15 0.76 0.35
3 16 0.16 0.16
3 17 0.6 0.33
3 18 0.28 0.28
3 19 0.26 0.26
4 5 0.16 0.16
4 6 0.62 0.38
4 7 0.4 0.25
4 8 0.56 0.18
4 9 0.18 0.18
4 10 0.31 0.31
4 11 0.26 0.26
4 12 0.36 0.26
4 13 0.66 0.28
4 14 0.46 0.14
4 15 0.58 0.16
4 16 0.32 0.32
4 17 0.12 0.12
4 18 0.36 0.36
4 19 0.29 0.29
5 6 0.22 0.22
5 7 0.64 0.24
5 8 0.62 0.21
5 9 0.22 0.07
5 10 0.15 0.15
5 11 0.63 0.15
5 12 0.15 0.15
5 13 0.23 0.23
5 14 0.29 0.29
5 15 0.57 0.28
5 16 0.32 0.24
5 17 0.69 0.24
5 18 0.75 0.25
5 19 0.54 0.13
6 7 0.21 0.21
6 8 0.38 0.38
6 9 0.24 0.24
6 10 0.32 0.32
6 11 0.44 0.16
6 12 0.16 0.16
6 13 0.18 0.18
6 14 0.6 0.33
6 15 0.31 0.31
6 16 0.6 0.32
6 17 0.7 0.41
6 18 0.26 0.26
6 19 0.24 0.24
7 8 0.24 0.24
7 9 0.19 0.19
7 10 0.68 0.26
7 11 0.26 0.26
7 12 0.48 0.26
7 13 0.29 0.03
7 14 0.12 0.12
7 15 0.7 0.18
7 16 0.64 0.28
7 17 0.5 0.27
7 18 0.58 0.16
7 19 0.28 0.28
8 9 0.14 0.14
8 10 0.76 0.36
8 11 0.22 0.22
8 12 0.71 0.22
8 13 0.21 0.21
8 14 0.25 0.19
8 15 0.69 0.11
8 16 0.69 0.17
8 17 0.16 0.16
8 18 0.29 0.29
8 19 0.34 0.34
9 10 0.58 0.22
9 11 0.08 0.08
9 12 0.08 0.08
9 13 0.5 0.22
9 14 0.41 0.28
9 15 0.23 0.23
9 16 0.3 0.3
9 17 0.17 0.17
9 18 0.18 0.18
9 19 0.72 0.2
10 11 0.86 0.16
10 12 0.16 0.16
10 13 0.29 0.29
10 14 0.38 0.38
10 15 0.6 0.31
10 16 0.38 0.38
10 17 0.32 0.32
10 18 0.26 0.26
10 19 0.5 0.28
11 12 0.0 0.0
11 13 0.6 0.29
11 14 0.28 0.28
11 15 0.78 0.15
11 16 0.22 0.22
11 17 0.25 0.25
11 18 0.1 0.1
11 19 0.25 0.25
12 13 0.29 0.29
12 14 0.73 0.28
12 15 0.15 0.15
12 16 0.49 0.22
12 17 0.48 0.25
12 18 0.46 0.1
12 19 0.48 0.25
13 14 0.15 0.15
13 15 0.21 0.21
13 16 0.31 0.31
13 17 0.28 0.24
13 18 0.56 0.19
13 19 0.44 0.31
14 15 0.44 0.2
14 16 0.32 0.32
14 17 0.58 0.25
14 18 0.28 0.28
14 19 0.52 0.16
15 16 0.58 0.24
15 17 0.66 0.1
15 18 0.48 0.25
15 19 0.36 0.36
16 17 0.78 0.33
16 18 0.12 0.12
16 19 0.48 0.3
17 18 0.78 0.35
17 19 0.57 0.36
18 19 0.8 0.35
